\ LP format - for model browsing. Use MPS format to capture full model detail.
Maximize
  43.4 z1 + 23 z2 + 35.8 z3 + 12.8 z4 + 23 z5 + 20.4 z6 + 17.8 z7 + 10.2 z8
   + 17.8 z9 + 30.8 z10 + 12.8 z11 + 46 z12 + 20 z13 + 32 z14 + 38.4 z15
   + 39 z16 + 35.8 z17 + 35.4 z18 + 46 z19 + 40 z20
Subject To
 constraint1: 47 z1 + 24 z2 + 41 z3 + 14 z4 + 26 z5 + 23 z6 + 19 z7 + 11 z8
   + 18 z9 + 33 z10 + 13 z11 + 46 z12 + 20 z13 + 32 z14 + 41 z15 + 39 z16
   + 36 z17 + 41 z18 + 48 z19 + 40 z20 <= 200
 constraints2_13_&_16: z13 - z16 = 0
 constraints2_14_&_18: z14 - z18 = 0
 constraints2_18_&_20: z18 - z20 = 0
 constraints3_1_|_12: z1 + z12 <= 1
 constraints3_9_|_14: z9 + z14 <= 1
 constraints3_9_|_17: z9 + z17 <= 1
 constraints3_10_|_13: z10 + z13 <= 1
 constraints3_11_|_14: z11 + z14 <= 1
 constraints3_11_|_18: z11 + z18 <= 1
 constraints3_12_|_13: z12 + z13 <= 1
 constraints3_12_|_15: z12 + z15 <= 1
 constraints3_12_|_16: z12 + z16 <= 1
 constraints3_12_|_17: z12 + z17 <= 1
 constraints3_12_|_19: z12 + z19 <= 1
 constraints3_13_|_14: z13 + z14 <= 1
 constraints3_13_|_15: z13 + z15 <= 1
 constraints3_13_|_17: z13 + z17 <= 1
 constraints3_13_|_18: z13 + z18 <= 1
 constraints3_13_|_19: z13 + z19 <= 1
 constraints3_14_|_15: z14 + z15 <= 1
 constraints3_14_|_17: z14 + z17 <= 1
Bounds
Binaries
 z1 z2 z3 z4 z5 z6 z7 z8 z9 z10 z11 z12 z13 z14 z15 z16 z17 z18 z19 z20
End
